Cost: 475
0-14-25-18-0
0-27-48-7-23-6-0
0-32-16-50-34-30-10-0
0-46-38-9-49-5-0
0-37-15-44-42-17-47-0
0-20-35-36-3-28-1-0
0-8-22-2-11-0
Cost: 475
0-37-15-44-42-17-47-0
0-8-22-2-11-0
0-10-30-34-50-16-32-0
0-5-49-9-38-46-0
0-27-48-7-23-6-0
0-20-35-36-3-28-1-0
0-14-25-18-0
Cost: 475
0-14-25-18-0
0-27-48-7-23-6-0
0-32-16-50-34-30-10-0
0-46-38-9-49-5-0
0-37-15-44-42-17-47-0
0-20-35-36-3-28-1-0
0-8-22-2-11-0
Cost: 475
0-14-25-18-0
0-11-2-22-8-0
0-27-48-7-23-6-0
0-1-28-3-36-35-20-0
0-37-15-44-42-17-47-0
0-10-30-34-50-16-32-0
0-5-49-9-38-46-0
Cost: 475
0-8-22-2-11-0
0-1-28-3-36-35-20-0
0-6-23-7-48-27-0
0-38-9-49-5-46-0
0-18-25-14-0
0-32-16-50-34-30-10-0
0-47-17-42-44-15-37-0
Cost: 475
0-46-5-49-9-38-0
0-14-25-18-0
0-1-28-3-36-35-20-0
0-8-22-2-11-0
0-47-17-42-44-15-37-0
0-6-23-7-48-27-0
0-10-30-34-50-16-32-0
Cost: 475
0-10-30-34-50-16-32-0
0-1-28-3-36-35-20-0
0-37-15-44-42-17-47-0
0-11-2-22-8-0
0-46-38-9-49-5-0
0-27-48-7-23-6-0
0-18-25-14-0
Cost: 475
0-10-30-34-50-16-32-0
0-1-28-3-36-35-20-0
0-37-15-44-42-17-47-0
0-11-2-22-8-0
0-46-38-9-49-5-0
0-27-48-7-23-6-0
0-18-25-14-0
Cost: 475
0-10-30-34-50-16-32-0
0-1-28-3-36-35-20-0
0-37-15-44-42-17-47-0
0-11-2-22-8-0
0-46-38-9-49-5-0
0-27-48-7-23-6-0
0-18-25-14-0
Cost: 475
0-1-28-3-36-35-20-0
0-18-25-14-0
0-38-9-49-5-46-0
0-8-22-2-11-0
0-47-17-42-44-15-37-0
0-10-30-34-50-16-32-0
0-27-48-7-23-6-0
Cost: 475
0-10-30-34-50-16-32-0
0-27-48-7-23-6-0
0-14-25-18-0
0-11-2-22-8-0
0-37-15-44-42-17-47-0
0-38-9-49-5-46-0
0-1-28-3-36-35-20-0
Cost: 475
0-10-30-34-50-16-32-0
0-27-48-7-23-6-0
0-14-25-18-0
0-11-2-22-8-0
0-37-15-44-42-17-47-0
0-38-9-49-5-46-0
0-1-28-3-36-35-20-0
Cost: 475
0-10-30-34-50-16-32-0
0-27-48-7-23-6-0
0-14-25-18-0
0-11-2-22-8-0
0-37-15-44-42-17-47-0
0-38-9-49-5-46-0
0-1-28-3-36-35-20-0
Cost: 475
0-10-30-34-50-16-32-0
0-47-17-42-44-15-37-0
0-14-25-18-0
0-27-48-7-23-6-0
0-20-35-36-3-28-1-0
0-11-2-22-8-0
0-46-38-9-49-5-0
Cost: 475
0-10-30-34-50-16-32-0
0-27-48-7-23-6-0
0-14-25-18-0
0-11-2-22-8-0
0-37-15-44-42-17-47-0
0-38-9-49-5-46-0
0-1-28-3-36-35-20-0
Cost: 475
0-10-30-34-50-16-32-0
0-27-48-7-23-6-0
0-14-25-18-0
0-11-2-22-8-0
0-37-15-44-42-17-47-0
0-38-9-49-5-46-0
0-1-28-3-36-35-20-0
Cost: 475
0-8-22-2-11-0
0-32-16-50-34-30-10-0
0-27-48-7-23-6-0
0-18-25-14-0
0-20-35-36-3-28-1-0
0-5-49-9-38-46-0
0-37-15-44-42-17-47-0
Cost: 475
0-11-2-22-8-0
0-20-35-36-3-28-1-0
0-46-38-9-49-5-0
0-6-23-7-48-27-0
0-14-25-18-0
0-37-15-44-42-17-47-0
0-10-30-34-50-16-32-0
Cost: 475
0-47-17-42-44-15-37-0
0-14-25-18-0
0-32-16-50-34-30-10-0
0-8-22-2-11-0
0-20-35-36-3-28-1-0
0-6-23-7-48-27-0
0-5-49-9-38-46-0
Cost: 475
0-47-17-42-44-15-37-0
0-14-25-18-0
0-32-16-50-34-30-10-0
0-8-22-2-11-0
0-20-35-36-3-28-1-0
0-6-23-7-48-27-0
0-5-49-9-38-46-0
Cost: 475
0-8-22-2-11-0
0-46-5-49-9-38-0
0-32-16-50-34-30-10-0
0-14-25-18-0
0-6-23-7-48-27-0
0-47-17-42-44-15-37-0
0-1-28-3-36-35-20-0
Cost: 475
0-8-22-2-11-0
0-46-5-49-9-38-0
0-32-16-50-34-30-10-0
0-14-25-18-0
0-6-23-7-48-27-0
0-47-17-42-44-15-37-0
0-1-28-3-36-35-20-0
Cost: 475
0-46-5-49-9-38-0
0-47-17-42-44-15-37-0
0-11-2-22-8-0
0-14-25-18-0
0-20-35-36-3-28-1-0
0-10-30-34-50-16-32-0
0-27-48-7-23-6-0
Cost: 475
0-8-22-2-11-0
0-46-5-49-9-38-0
0-32-16-50-34-30-10-0
0-14-25-18-0
0-6-23-7-48-27-0
0-47-17-42-44-15-37-0
0-1-28-3-36-35-20-0
Cost: 475
0-11-2-22-8-0
0-20-35-36-3-28-1-0
0-46-38-9-49-5-0
0-6-23-7-48-27-0
0-14-25-18-0
0-37-15-44-42-17-47-0
0-10-30-34-50-16-32-0
Cost: 475
0-47-17-42-44-15-37-0
0-14-25-18-0
0-32-16-50-34-30-10-0
0-8-22-2-11-0
0-20-35-36-3-28-1-0
0-6-23-7-48-27-0
0-5-49-9-38-46-0
Cost: 475
0-6-23-7-48-27-0
0-10-30-34-50-16-32-0
0-11-2-22-8-0
0-1-28-3-36-35-20-0
0-37-15-44-42-17-47-0
0-5-49-9-38-46-0
0-14-25-18-0
Cost: 479
0-49-10-30-34-50-0
0-27-1-8-48-6-0
0-14-24-23-7-0
0-38-9-16-2-32-0
0-18-47-12-46-0
0-17-37-15-44-42-4-0
0-20-35-36-3-28-22-0
Cost: 477
0-38-10-30-34-50-16-0
0-47-17-42-44-15-37-0
0-20-35-36-3-28-1-0
0-5-49-9-11-0
0-6-23-7-48-46-0
0-18-25-14-0
0-32-2-22-8-27-0
Cost: 475
0-10-30-34-50-16-32-0
0-47-17-42-44-15-37-0
0-27-48-7-23-6-0
0-20-35-36-3-28-1-0
0-46-38-9-49-5-0
0-14-25-18-0
0-8-22-2-11-0
Cost: 475
0-14-25-18-0
0-10-30-34-50-16-32-0
0-6-23-7-48-27-0
0-1-28-3-36-35-20-0
0-38-9-49-5-46-0
0-8-22-2-11-0
0-47-17-42-44-15-37-0
